2558
500000
332400
332400
332400
332400
332400
332400
332400
332400
332400
332400
332400
332400
332400
332400
332400
332400
332400
332400
332400
332400
332200
332123
332123
332123
332123
332123
332123
331975
331975
331975
331975
331975
331975
331975
331975
331975
331975
331975
331975
331975
331975
331975
331975
331975
331975
331975
331975
329787
329787
329787
327925
327925
327925
327925
327925
327925
327925
327925
327925
327925
327925
327925
327925
327925
327925
327184
327184
327184
327184
327184
325064
325064
325064
325064
325064
325064
325064
325064
325064
325064
325064
325064
325064
325064
325064
324751
324751
324751
324751
324751
324751
324751
324751
324751
324751
324751
324751
322978
322978
322978
322978
322978
322978
322978
322978
322978
322978
322978
322978
322978
322978
322978
322978
322978
322978
322024
322024
322024
322024
322024
322024
322024
322024
322024
322024
322024
322024
322024
322024
322024
322024
322024
320633
320633
320633
320633
320633
320633
320633
320633
320633
320633
320633
320633
320633
320633
319676
319676
319676
318037
315627
315627
315627
315627
315627
315627
315627
315627
315511
315511
315511
315511
315511
315511
315511
315511
315511
315511
315511
315511
315511
315511
315511
315511
315511
315511
315231
315231
315231
315231
315231
315231
312240
312240
312240
312240
312240
312240
312240
312240
312240
312240
312240
312240
312240
312240
312240
312240
312240
312240
312240
312240
310125
310125
310125
310125
310125
307304
307304
307304
307304
307304
307304
307304
307304
307304
307304
307304
307304
307304
307304
307304
307304
307304
307304
307186
307186
307186
307186
307186
307186
307186
307186
307186
307186
307186
307186
307186
306238
306238
306238
306238
306238
306238
306238
306238
306238
306238
306238
304337
304337
302144
302144
301265
301265
299504
299504
299504
299504
299504
299504
299504
299504
299504
299504
299504
299504
299504
299077
299077
299077
299077
299077
299077
299077
299077
299077
299077
299077
299077
299077
299077
299077
299077
299077
298582
298582
298582
298582
298582
298582
298582
298582
298582
298582
298582
298582
298582
298582
298582
298582
298582
298582
298582
298582
297373
297373
297373
297373
297373
297373
297373
297373
297373
297373
297373
297373
297373
297373
296060
296060
296060
296060
296060
296060
296060
296060
296060
296060
296060
296060
296060
295074
295074
295074
295074
295074
295074
295074
295074
295074
294736
294736
294736
294736
294736
294736
294736
294736
294736
294736
294736
294736
293606
293606
291625
291625
291625
291625
291625
289869
289869
289869
289869
289869
289869
289869
289869
289869
289869
289869
289869
289869
289869
289869
289869
288910
288910
288910
288910
288910
288910
288910
288910
288910
288910
288910
288910
288910
288910
288910
288910
287135
287135
287135
287135
287135
287135
287135
287135
286507
286507
286507
286407
285117
285117
285117
285117
285117
285117
285117
285117
285117
285117
284047
284047
284047
284047
284047
284047
284047
284047
284047
284047
284047
284047
284047
284047
284047
284047
284047
284047
284047
284047
281459
281459
281459
281459
281459
281459
281459
281459
281459
280127
280127
280127
280127
280127
280127
280127
280127
280127
280127
280127
280127
280127
280127
280127
280127
280127
280127
280127
280127
278983
278983
278983
278983
278983
278983
278983
278983
278983
278983
278983
278983
278983
278983
278983
278983
278983
278983
277890
277890
277890
277745
277745
277745
277745
277745
277277
277277
277277
276933
276933
276933
276933
276933
276933
276933
275217
275217
275217
275217
275217
275217
275217
275217
275217
275217
275217
275217
275217
275217
275217
275217
275217
275217
273678
273678
273519
273519
273519
273519
273519
273519
273519
273519
273519
273519
273519
273519
273519
273519
273519
273374
273084
272177
272177
272177
272177
272177
272177
270676
270676
270547
270547
270547
270547
270316
270316
270316
266181
266181
266181
266181
266181
266181
266181
266181
266181
266181
266181
266181
266181
265389
265389
265389
265389
265389
265389
265389
265389
265389
265389
263704
263704
263704
263704
263704
263704
263704
263704
263704
263704
263704
263704
263704
263704
263704
263704
263704
263704
263052
263052
263052
263052
263052
263052
263052
263052
263052
263052
263052
263052
263052
263052
263052
263052
263052
263052
263052
260541
260541
260541
260541
260541
260541
260541
260541
260541
260541
260541
257739
256274
256274
256274
256274
256274
256274
256274
256274
256274
256274
255509
255509
255509
255509
255509
255509
255509
255509
255509
255509
255509
255509
255509
255509
255509
255509
255509
255509
255509
253769
253769
253769
253769
253769
253769
253769
253769
253769
253769
253769
253769
252764
252764
252764
252764
252764
252764
252764
252764
252764
252764
251126
251126
251126
251126
251126
251126
251126
251126
251126
251126
251126
251126
251126
251126
251126
248165
248165
248165
248165
248165
248165
248165
248165
248165
248165
248165
248165
248165
248165
248165
248165
247925
247925
247925
247925
247925
247925
247925
246721
246721
246721
246721
246721
246721
246721
246721
246721
246474
246474
246474
246474
246474
246474
246474
246474
246474
246474
246474
246474
246474
246474
246474
245843
245843
245843
245843
245843
245843
245843
245843
245843
245843
245843
245843
245128
245128
245128
245128
245128
245128
245128
243568
243568
243568
243568
243568
243568
243568
243568
243568
243248
242732
242732
242732
242732
242732
242732
242732
242732
242732
242732
242732
242732
242732
240848
240848
240848
240848
240848
240848
240848
240848
240848
240848
239605
239605
239605
239605
239605
239100
239100
239100
239100
239100
239100
239100
239100
239100
239100
239100
239100
239100
239100
239100
239100
239100
239100
239100
239100
236996
236996
236996
236996
236996
236996
236996
236996
236996
236996
236996
236554
236554
236554
236554
236554
236554
236432
236432
236432
236432
236432
236432
236432
236432
236432
236432
236432
236432
236432
236432
236432
236377
236377
236377
236377
236377
236377
236377
236377
236377
236377
236377
236377
236377
236377
236377
236377
236377
232511
232511
232511
232511
232511
232511
232511
232511
232511
232511
232511
232511
232511
232511
232511
232511
232116
232116
232116
232116
232116
232116
232116
232116
232116
232116
232116
228933
228933
228933
228933
228933
228933
228933
228933
228933
228933
228933
228933
228713
228713
228713
228713
228713
228713
228713
228713
228400
228400
228400
228400
228400
228400
228400
228400
228400
228400
228400
228400
228400
228400
228400
228400
228400
225728
225728
225728
225728
225728
225728
225728
225728
225728
225728
225728
225086
225086
225086
225086
225086
225086
225086
223918
223918
223918
223918
223918
223918
223918
223918
223918
223918
223918
223918
223918
223918
223918
222155
222155
222155
222155
222155
222155
222155
222155
222155
222155
222155
222155
222155
222155
222155
222155
219745
219745
219745
219745
219745
217388
217388
217388
217254
217254
217254
217254
214687
214687
214687
214687
214687
214687
214687
214687
214687
214687
214687
214687
214687
214687
214687
212924
212924
212924
212924
212924
212924
212924
212924
210422
210422
210422
210422
210422
210422
210422
210422
210422
210422
210422
210422
209760
209760
209760
205879
205879
205879
205879
205879
205879
205879
205879
205879
205879
205879
205879
205879
205879
205879
205625
205625
205625
205625
205625
205625
205625
205625
205625
205625
205625
205625
205625
205625
205625
205625
205625
205625
205625
200172
200043
200043
200043
200043
200043
200043
200043
200043
200043
200043
200043
200043
200043
200043
200043
197896
197896
197896
197896
197896
197896
197896
197896
197896
197896
197896
197896
197093
197093
197093
197093
197093
197093
197093
197093
197093
197093
197093
197093
197093
197093
197093
196197
196197
196197
196197
196197
196197
196197
196197
196197
193076
193076
193076
193076
193076
193076
193076
193076
193076
193076
193076
193076
193076
193076
193076
193076
193076
192193
192193
192193
192193
192193
192193
192193
192193
192193
192193
192193
192193
192193
192193
192193
192193
192193
192193
192193
191446
191446
191446
191446
191446
191446
191446
191446
191446
191446
191446
191446
191446
191446
191446
191446
191446
191446
191446
190097
190097
190097
190097
190097
190097
190097
190097
190097
190097
190097
190097
190097
190097
190097
189556
189556
189556
189556
189556
189556
189556
189556
189556
189556
189556
188556
188556
188556
188556
188556
188556
188556
188556
188556
188556
188556
188556
183737
183737
183024
183024
183024
183024
183024
183024
183024
183024
183024
183024
183024
183024
183024
183024
183024
183024
183024
183024
183024
183024
180923
180923
180923
180923
180923
180923
180923
180923
180923
180923
180923
180923
180923
180923
180923
180923
180923
179034
179034
179034
179034
179034
179034
179034
179034
179034
179034
177359
177359
177359
177359
177359
177359
177230
177230
177230
177230
177230
177230
174502
174502
174502
174502
174502
174502
174502
174502
174502
174502
174502
174502
174502
174502
174502
174502
173943
173943
173943
173943
173943
173943
173943
173943
172472
172472
172472
172472
172472
172472
172472
172472
172472
172472
168182
168182
168182
168182
167925
167925
167925
167925
167925
167925
167925
167925
167925
167925
167925
165966
165966
165966
165966
165966
165966
165966
165966
165966
165966
165966
165966
165966
165966
165966
165966
165966
165966
164609
164487
164487
164487
163869
163869
163869
163869
163869
163869
163869
163869
163869
163869
163869
163869
163869
163180
163180
163180
163180
163180
163180
163180
163180
163180
163180
163180
163180
163180
163180
163180
163180
163180
163180
163180
163180
162861
162861
162286
162286
162286
162286
162286
162286
162286
162286
162286
162286
162286
162286
162286
162286
162286
162286
162286
162286
161421
161421
161421
161421
161421
161421
161421
161421
161421
161421
161421
161421
161421
161421
161421
158721
158721
158721
158721
158721
158721
158721
158721
158721
158721
158721
158721
158721
158721
158721
158721
158721
158721
158721
158721
158563
158563
158563
158563
158563
158563
158563
158563
158563
158563
158563
158563
158563
158563
158563
156904
156904
156904
156904
156904
156904
156904
156904
156904
156904
156904
156904
156904
156904
156904
156904
156904
156904
156799
155740
155740
155740
155740
155740
155740
155740
155740
155740
155740
155740
155740
155740
155740
155740
154237
154237
154237
154237
154237
154237
154237
154237
154237
154237
152631
152631
152631
152631
152631
152631
152631
152631
152631
152631
152631
152631
152631
152631
152631
152631
152631
151938
151938
151938
151938
151938
151938
151938
151938
151938
151938
151938
151938
151938
151010
151010
151010
151010
151010
151010
151010
151010
151010
151010
151010
151010
151010
150093
150093
150093
150093
149441
149441
149441
149094
149094
149094
149094
149094
149094
149094
149094
149094
149094
149094
149094
149094
149094
149094
149094
149094
144726
144726
144726
144726
144726
144726
144726
141997
141997
141997
141997
141997
141997
141997
141997
141997
141997
141997
141997
141997
140948
140948
140948
140948
140948
140948
140948
140948
140948
140948
140948
140948
140948
139795
139795
139795
139795
137315
133080
133080
133080
133080
133080
133080
133080
133080
133080
133080
133080
133080
133080
131822
131822
131822
131822
131822
131822
131822
131822
131822
131733
131733
131733
131733
131733
131733
131709
131709
131709
131709
131709
131709
131709
131709
131709
131709
131709
131709
131709
131709
130475
130475
130475
130475
130475
130475
130475
130475
130475
130475
130475
130475
130475
130475
130475
130475
129747
129747
129747
129747
129747
129747
129747
129747
129747
129747
128222
128222
128222
128222
128222
128222
128222
127701
127701
127701
127701
127701
127701
127701
127701
127511
127511
127511
127511
127511
127511
127511
127511
127511
127511
127511
127511
127511
127511
126073
126073
126073
124836
124836
124836
123383
123383
123383
123383
123383
123383
123383
123383
123383
123383
123383
123383
123383
123383
119701
119701
119701
119701
119701
119701
119701
119701
119701
116973
116973
116973
116973
115674
115674
113966
113966
113966
111722
111722
111722
111722
111722
111722
111722
111722
111722
110407
110407
110407
110407
110407
110407
110407
110407
110407
110407
107734
107734
107734
107734
107734
107734
105931
105931
105931
105931
105931
105931
105931
105931
105931
105931
105931
105931
105931
105931
101471
101471
101471
100894
100894
100894
100894
100894
100894
100894
100894
100894
100894
100894
100894
100894
100894
100894
100894
100894
100894
100861
100861
100861
100861
100861
100861
100861
100861
95978
95978
95978
95978
95978
95978
95978
95978
95978
95978
95978
95978
95978
95978
95978
95978
95978
95978
92712
92712
92712
92712
92712
92712
92712
92712
92712
92712
92712
92712
92712
92712
92712
92712
92712
92324
92324
91292
91292
91292
91292
91292
91292
91292
91292
91292
90961
90961
90961
88604
88604
88604
88604
88604
88604
87990
87990
87990
87990
87990
87990
87990
87990
87990
87990
87990
87990
87990
87990
87990
87990
87990
87990
87058
87058
87058
87058
87058
87058
87058
87058
87058
87058
87058
87058
87058
87058
85663
85663
85663
85663
85663
85663
85663
85663
85521
85521
85521
85521
85521
85521
85521
85521
85521
85521
85521
85521
85521
85521
85521
85521
85521
85521
85521
85406
85406
85406
85406
85406
85406
82948
82948
82948
82948
82948
82948
82948
82948
82948
80622
80622
80622
80622
80622
80622
80622
80622
80622
80384
80384
80384
80384
80384
80384
80384
80384
80384
80384
80384
80384
80384
80384
80384
80384
80384
78571
78571
78571
78571
78571
78571
78571
78571
78571
78571
78571
78571
78571
78571
78571
78571
78571
78571
78571
78571
78146
78146
78146
78146
78146
78146
78146
78146
78146
78146
78146
78146
78082
78082
78082
78082
78082
78082
78082
74913
74913
74913
74913
74913
74913
74913
74913
74913
74913
74913
74913
74913
74913
74913
73073
73073
72982
72982
72982
72982
72982
72982
72982
72982
72982
72982
72982
72982
72982
72982
72982
72982
72982
72526
72526
72526
72526
71266
70474
70474
70474
70355
70355
70355
70355
70355
70355
70355
70355
70355
70355
70355
69194
69194
69194
69194
69194
69194
69194
68845
68845
68845
68845
68845
68845
68845
68845
68845
68845
68845
68845
68845
68845
68845
68539
68539
68539
68539
63480
63480
63480
63480
63480
63480
63480
63480
63480
63480
63480
63480
63480
63480
62878
62878
62878
62878
62878
62878
62878
62878
62878
62878
61463
61463
61463
61463
61463
61463
61463
61463
61463
61463
61463
61463
61463
61188
61188
61188
61188
61188
61188
58815
57423
57423
57423
57423
57423
57423
57423
57423
57423
57423
57423
57423
57064
57064
57064
57064
57064
57064
57064
57064
57064
57064
57064
57064
57064
57064
57027
57027
57027
57027
57027
57027
57027
57027
57027
57027
57027
57027
57027
57027
57027
57027
57027
57027
57027
57027
55374
55374
55374
54869
54869
54869
54869
54869
54869
54869
54698
54698
54698
54698
54698
54698
54698
54698
54698
54698
54059
54059
54059
54059
54059
54059
54059
54059
54059
54059
54059
54059
54059
54059
52874
52874
52874
52874
52874
52874
52874
52874
52874
52874
52874
52874
52874
52874
52874
52874
52504
52504
52504
51596
51596
51596
51596
51596
51596
51596
51596
51596
51596
51082
51082
51082
51082
51082
51082
51082
51082
50909
50909
50909
50909
50909
50909
50816
50816
50816
50816
50816
50816
50816
50816
50816
50816
50816
50816
50236
50236
50236
50236
50236
50236
50236
49190
49190
49190
49190
49190
49190
49190
49190
47302
47302
47302
46668
46668
46668
46668
46668
46668
46668
46668
46668
46668
46060
46060
42115
42115
42115
39435
39435
39435
39435
39435
39435
39435
39435
39435
39435
39435
39435
39435
39435
39435
39435
39435
39435
39435
39435
38346
38346
38346
38346
37894
37894
37894
37894
37894
37894
37894
37894
37894
37894
37894
37894
37894
37894
37894
35746
35746
35746
35746
35746
35746
35746
35746
35746
35746
35746
35746
35746
35746
35746
35292
35292
35292
35292
35292
35292
35292
34552
34552
34552
34552
34123
34123
34123
34123
34123
34123
34123
34123
34123
34123
34123
34123
34123
34123
34123
34123
34123
34070
34070
34070
34070
34070
34070
34070
34070
34070
31791
31191
31191
31191
31191
31191
31191
31191
31191
31191
31191
31191
31191
29681
29681
29681
29681
29681
29681
29681
29681
29681
28940
28940
28940
28940
28940
28940
28940
27002
27002
27002
27002
27002
27002
27002
27002
27002
27002
27002
27002
27002
27002
27002
27002
26966
26966
26966
26966
26966
26966
26966
26966
26966
26966
26966
26966
26966
26966
26966
26966
26966
26728
26728
26728
26728
26728
24368
24368
24368
24368
24368
24368
24368
24368
24368
24368
24368
24368
24368
24368
24368
24368
24368
24368
24368
23183
23183
23183
23183
23183
23183
23183
23183
23183
23183
23183
23183
23183
23183
23183
22670
22670
22670
22300
18099
18099
18099
18099
18099
18099
18099
18099
14352
14352
14352
14352
14352
14352
14352
14352
14352
14352
14352
14352
12819
12819
12819
12819
12819
12819
12819
12819
12819
12819
10874
10874
10874
10874
10874
10874
10874
10874
10874
10874
10874
10874
10874
10874
10874
10874
10874
10874
10874
8472
8472
8472
7483
7483
7483
7483
7483
7483
6892
6892
6892
6892
6892
6892
6892
6892
6892
6892
6892
6892
6892
6892
6892
6892
6892
6892
6892
6892
6442
6442
6442
6442
6442
6442
6442
6442
